NAME : CMT12Q.729249.tour
COMMENT : Cost = 0_729249
COMMENT : Found by LKH [Keld Helsgaun] Fri Sep 15 01:03:48 2017
TYPE : TOUR
DIMENSION : 107
TOUR_SECTION
1
91
92
90
89
86
99
97
96
95
93
94
98
101
100
103
88
87
85
84
83
82
79
77
72
71
74
78
80
81
73
62
65
107
68
66
64
75
63
67
70
42
43
44
104
50
53
51
52
32
33
34
36
38
39
40
37
35
30
25
21
102
22
23
26
28
31
29
27
24
8
5
3
2
76
106
48
47
49
46
45
41
60
61
59
57
54
55
58
56
69
105
11
12
14
18
19
20
16
17
15
13
10
9
7
4
6
-1
EOF
